c Sudoku solution
p cnf 729 0
115 0
159 0
194 0
237 0
319 0
332 0
367 0
469 0
513 0
547 0
566 0
571 0
612 0
634 0
641 0
699 0
723 0
133 0
762 0
777 0
187 0
497 0
627 0
839 0
529 0
858 0
957 0
817 0
864 0
881 0
973 0
843 0
474 0
554 0
279 0
984 0
789 0
714 0
949 0
998 0
738 0
751 0
965 0
746 0
795 0
825 0
922 0
535 0
592 0
588 0
668 0
263 0
161 0
282 0
142 0
445 0
452 0
653 0
483 0
255 0
356 0
872 0
896 0
393 0
291 0
176 0
128 0
216 0
224 0
321 0
248 0
344 0
911 0
936 0
418 0
426 0
431 0
675 0
686 0
378 0
385 0
